c File: data_files/evolved_graphs/g0499.col
c
c Auto generated graph
c
p edge 100 158
e 1 20
e 1 41
e 1 44
e 1 56
e 1 67
e 1 82
e 1 97
e 3 5
e 3 59
e 3 61
e 4 10
e 4 22
e 4 29
e 4 84
e 5 30
e 5 59
e 5 61
e 6 42
e 6 85
e 7 95
e 8 11
e 8 12
e 8 17
e 8 23
e 8 88
e 9 55
e 9 60
e 9 89
e 10 18
e 10 29
e 10 84
e 11 12
e 11 23
e 11 88
e 11 99
e 12 23
e 12 88
e 13 63
e 13 71
e 13 73
e 14 74
e 14 96
e 15 54
e 16 53
e 16 86
e 17 23
e 17 88
e 17 91
e 18 64
e 18 79
e 19 27
e 20 41
e 20 44
e 20 56
e 20 67
e 20 82
e 20 97
e 21 24
e 21 33
e 21 49
e 21 62
e 21 98
e 22 29
e 22 94
e 23 88
e 23 99
e 24 33
e 24 49
e 24 90
e 24 98
e 25 26
e 25 28
e 25 48
e 25 65
e 26 48
e 26 65
e 27 38
e 27 79
e 28 37
e 28 99
e 29 35
e 29 84
e 31 45
e 31 81
e 31 93
e 32 74
e 33 49
e 33 62
e 33 98
e 34 39
e 34 41
e 34 47
e 34 56
e 34 58
e 34 82
e 35 84
e 38 79
e 39 41
e 39 67
e 39 82
e 39 92
e 40 54
e 40 57
e 41 44
e 41 47
e 41 56
e 41 58
e 41 67
e 41 82
e 42 68
e 42 69
e 42 85
e 44 47
e 44 56
e 44 67
e 44 82
e 44 97
e 45 81
e 45 93
e 46 70
e 47 56
e 47 58
e 47 82
e 48 65
e 49 62
e 49 98
e 50 95
e 50 100
e 51 78
e 52 72
e 52 97
e 53 86
e 55 60
e 55 89
e 56 67
e 56 82
e 56 97
e 57 96
e 59 61
e 60 89
e 63 73
e 64 66
e 64 79
e 66 75
e 66 100
e 67 82
e 67 92
e 68 69
e 71 73
e 72 97
e 75 86
e 75 100
e 76 87
e 80 83
e 80 94
e 81 93
e 82 92
e 83 94
